26,11
27,11
28,11
29,12
24,13
31,14
22,15
33,15
20,17
35,17
18,19
37,19
17,21
36,21
16,22
35,22
34,23
14,24
33,25
12,26
32,26
31,27
10,28
30,28
9,30
29,30
27,31
7,32
27,32
8,33
25,33
10,34
24,35
12,36
14,37
22,37
15,38
21,38
17,39
19,39
20,39
